solution status: optimal solution found
objective value:                     153015.475030655
d11(0,0)                                            1 	(obj:0)
d11(1,1)                                            1 	(obj:0)
d11(2,3)                                            1 	(obj:0)
d11(2,4)                                            1 	(obj:0)
d11(2,5)                                            1 	(obj:0)
d11(3,7)                                            1 	(obj:0)
d11(3,8)                                            1 	(obj:0)
d11(3,9)                                            1 	(obj:0)
d11(3,10)                                           1 	(obj:0)
d11(3,11)                                           1 	(obj:0)
d11(3,12)                                           1 	(obj:0)
d11(3,13)                                           1 	(obj:0)
d11(3,14)                                           1 	(obj:0)
d11(4,15)                                           1 	(obj:0)
d11(4,17)                                           1 	(obj:0)
d11(4,19)                                           1 	(obj:0)
d11(4,23)                                           1 	(obj:0)
d11(4,25)                                           1 	(obj:0)
d11(4,27)                                           1 	(obj:0)
d11(4,29)                                           1 	(obj:0)
d12(4,16)                                           1 	(obj:0)
d12(4,18)                                           1 	(obj:0)
d12(4,20)                                           1 	(obj:0)
d12(4,22)                                           1 	(obj:0)
d12(4,24)                                           1 	(obj:0)
d12(4,26)                                           1 	(obj:0)
d12(4,28)                                           1 	(obj:0)
d12(4,30)                                           1 	(obj:0)
d21(2,3)                                            1 	(obj:0)
d21(3,7)                                            1 	(obj:0)
d21(3,8)                                            1 	(obj:0)
d21(3,9)                                            1 	(obj:0)
d21(3,11)                                           1 	(obj:0)
d21(4,15)                                           1 	(obj:0)
d21(4,16)                                           1 	(obj:0)
d21(4,17)                                           1 	(obj:0)
d21(4,18)                                           1 	(obj:0)
d21(4,19)                                           1 	(obj:0)
d21(4,20)                                           1 	(obj:0)
d21(4,23)                                           1 	(obj:0)
d21(4,24)                                           1 	(obj:0)
y2(4,16)                               1385.488511449 	(obj:0)
y2(4,18)                             1385.48851144895 	(obj:0)
y2(4,20)                               1385.488511449 	(obj:0)
y2(4,22)                               1385.488511449 	(obj:0)
y2(4,24)                               1385.488511449 	(obj:0)
y2(4,26)                             1385.48851144898 	(obj:0)
y2(4,28)                               1385.488511449 	(obj:0)
y2(4,30)                             1385.48851144895 	(obj:0)
STE(1,1)                             7035.75010110611 	(obj:0)
STE(0,0)                                         9450 	(obj:0)
STE(1,2)                                         8694 	(obj:0)
STE(2,3)                             4621.50020221726 	(obj:0)
STE(2,4)                              6279.7501011061 	(obj:0)
STE(2,5)                             6279.75010111119 	(obj:0)
STE(2,6)                                         7938 	(obj:0)
STE(3,7)                             2164.50045221725 	(obj:0)
STE(3,8)                             3822.75035110607 	(obj:0)
STE(3,9)                              3822.7503511061 	(obj:0)
STE(3,10)                            5481.00024999491 	(obj:0)
STE(3,11)                            3822.75035111118 	(obj:0)
STE(3,12)                                  5481.00025 	(obj:0)
STE(3,13)                            5481.00024999999 	(obj:0)
STE(3,14)                            7139.25014888881 	(obj:0)
STE(4,15)                            1408.50045221725 	(obj:0)
STE(4,16)                             2724.7145380938 	(obj:0)
STE(4,17)                            3066.75035110613 	(obj:0)
STE(4,18)                            4382.96443698257 	(obj:0)
STE(4,19)                            3066.75035110616 	(obj:0)
STE(4,20)                            4382.96443698265 	(obj:0)
STE(4,21)                                  4725.00025 	(obj:0)
STE(4,22)                            6041.21433587146 	(obj:0)
STE(4,23)                            3066.75035111124 	(obj:0)
STE(4,24)                            4382.96443698773 	(obj:0)
STE(4,25)                                  4725.00025 	(obj:0)
STE(4,26)                            6041.21433587653 	(obj:0)
STE(4,27)                            4725.00025000005 	(obj:0)
STE(4,28)                            6041.21433587654 	(obj:0)
STE(4,29)                            6383.25014888881 	(obj:0)
STE(4,30)                            7699.46423476532 	(obj:0)
y1(3,10)                             38.4748660000716 	(obj:0)
y1(3,11)                             1530.89977500001 	(obj:0)
y1(3,12)                             38.4748660000716 	(obj:0)
y1(3,13)                             1530.89977500001 	(obj:0)
y1(3,14)                             38.4748660000716 	(obj:0)
y1(4,21)                         -4.57745045423508e-009 	(obj:0)
AVE(1)                               3265.91696791192 	(obj:0)
WB(2)                                3332.74178563731 	(obj:0)
AVE(2)                               3332.74178563731 	(obj:0)
AVE(3)                               3444.11697932125 	(obj:0)
WB(4)                                3399.56511093291 	(obj:0)
AVE(4)                               3399.56511093778 	(obj:0)
WG(1)                                3265.91696791192 	(obj:10)
WG(3)                                3444.11697932125 	(obj:10)
WG(4)                            4.87043693357584e-009 	(obj:10)
BG(1)                                930.375531072308 	(obj:10)
BG(2)                                4196.29249897959 	(obj:10)
BG(3)                                791.435587005307 	(obj:10)
BG(4)                                2673.40993877064 	(obj:10)
y1(1,1)                              1492.42490900451 	(obj:0)
y1(2,3)                              1492.42490899996 	(obj:0)
y1(2,5)                              1492.42490899993 	(obj:0)
y1(3,7)                              1530.89977500001 	(obj:0)
y1(3,8)                              38.4748660000716 	(obj:0)
y1(3,9)                              1530.89977500001 	(obj:0)
